c This is QMaxSAT 2017 based on 14.07
c This is Glucose 3.0
c This is MiniSat 2.2.0
c WARNING: for repeatability, setting FPU to use double precision
c card = mrwto, comp = 0, pmodel = 0, narr = 8, mct = 29, verb = 0
cr firstCPXsol 0 0 0
c top = 167313
c |  Number of variables:    27896                                            |
c |  Number of clauses:      8900880                                          |
c |  Weight of hard clauses: 167313                                           |
c |  Number of soft clauses: 6496                                             |
c |  Number of unit soft clauses: 6496                                        |
c |  Maximum Cardinality (by unit): 1338496      (1338496     )               |
c last restart ## conflicts  :  0 1051 
o 1109 | cpuTime 0.734301 s
c Sum of weights = 167312
c A number of soft clauses remained = 812
c MRWTO encoding for Pseudo-Boolean Constraints
c sizeMax=1109
c No.0 Divisor=11	generated by pow1
c No.1 Divisor=11	generated by pow1
c No.2 Divisor=11	generated by pow1
c p0= 11	p1= 11	p2= 11	
c number of digits = 4
c linkingVar[0].size = 11, linkingVar[1].size = 11, linkingVar[2].size = 10, linkingVar[3].size = 1, 
c Pseudo-Boolean Constraints: 18136 variables and 163418 clauses
c Sum of weights = 167312
c A number of soft clauses remained = 812
c MRWTO encoding for Pseudo-Boolean Constraints
c sizeMax=1109
c No.0 Divisor=11	generated by pow1
c No.1 Divisor=11	generated by pow1
c No.2 Divisor=11	generated by pow1
c p0= 11	p1= 11	p2= 11	
c number of digits = 4
c linkingVar[0].size = 11, linkingVar[1].size = 11, linkingVar[2].size = 10, linkingVar[3].size = 1, 
c Pseudo-Boolean Constraints: 18136 variables and 163418 clauses
c Sum of weights = 167312
c A number of soft clauses remained = 812
c MRWTO encoding for Pseudo-Boolean Constraints
c sizeMax=1109
c No.0 Divisor=11	generated by pow1
c No.1 Divisor=11	generated by pow1
c No.2 Divisor=11	generated by pow1
c p0= 11	p1= 11	p2= 11	
c number of digits = 4
c linkingVar[0].size = 11, linkingVar[1].size = 11, linkingVar[2].size = 10, linkingVar[3].size = 1, 
c Pseudo-Boolean Constraints: 18136 variables and 163418 clauses
c Sum of weights = 167312
c A number of soft clauses remained = 812
c MRWTO encoding for Pseudo-Boolean Constraints
c sizeMax=1109
c No.0 Divisor=11	generated by pow1
c No.1 Divisor=11	generated by pow1
c No.2 Divisor=11	generated by pow1
c p0= 11	p1= 11	p2= 11	
c number of digits = 4
c linkingVar[0].size = 11, linkingVar[1].size = 11, linkingVar[2].size = 10, linkingVar[3].size = 1, 
c Pseudo-Boolean Constraints: 18136 variables and 163418 clauses
c Sum of weights = 167312
c A number of soft clauses remained = 812
c MRWTO encoding for Pseudo-Boolean Constraints
c sizeMax=1109
c No.0 Divisor=11	generated by pow1
c No.1 Divisor=11	generated by pow1
c No.2 Divisor=11	generated by pow1
c p0= 11	p1= 11	p2= 11	
c number of digits = 4
c linkingVar[0].size = 11, linkingVar[1].size = 11, linkingVar[2].size = 10, linkingVar[3].size = 1, 
c Pseudo-Boolean Constraints: 18136 variables and 163418 clauses
c Sum of weights = 167312
c A number of soft clauses remained = 812
c MRWTO encoding for Pseudo-Boolean Constraints
c sizeMax=1109
c No.0 Divisor=11	generated by pow1
c No.1 Divisor=11	generated by pow1
c No.2 Divisor=11	generated by pow1
c p0= 11	p1= 11	p2= 11	
c number of digits = 4
c linkingVar[0].size = 11, linkingVar[1].size = 11, linkingVar[2].size = 10, linkingVar[3].size = 1, 
c Pseudo-Boolean Constraints: 18136 variables and 163418 clauses
c Sum of weights = 167312
c A number of soft clauses remained = 812
c MRWTO encoding for Pseudo-Boolean Constraints
c sizeMax=1109
c No.0 Divisor=11	generated by pow1
c No.1 Divisor=11	generated by pow1
c No.2 Divisor=11	generated by pow1
c p0= 11	p1= 11	p2= 11	
c number of digits = 4
c linkingVar[0].size = 11, linkingVar[1].size = 11, linkingVar[2].size = 10, linkingVar[3].size = 1, 
c Pseudo-Boolean Constraints: 18136 variables and 163418 clauses
c Sum of weights = 167312
c A number of soft clauses remained = 812
c MRWTO encoding for Pseudo-Boolean Constraints
c sizeMax=1109
c No.0 Divisor=11	generated by pow1
c No.1 Divisor=11	generated by pow1
c No.2 Divisor=11	generated by pow1
c p0= 11	p1= 11	p2= 11	
c number of digits = 4
c linkingVar[0].size = 11, linkingVar[1].size = 11, linkingVar[2].size = 10, linkingVar[3].size = 1, 
c Pseudo-Boolean Constraints: 18136 variables and 163418 clauses
c last restart ## conflicts  :  123 4307 
o 1097 | cpuTime 20.0979 s
c last restart ## conflicts  :  157 4883 
o 1042 | cpuTime 24.4586 s
c last restart ## conflicts  :  231 3858 
o 918 | cpuTime 40.0671 s
c last restart ## conflicts  :  150 19320 
o 915 | cpuTime 40.3262 s
c last restart ## conflicts  :  18 39842 
o 896 | cpuTime 40.3716 s
c last restart ## conflicts  :  218 5441 
o 872 | cpuTime 44.0741 s
c last restart ## conflicts  :  394 4964 
o 867 | cpuTime 64.881 s
c last restart ## conflicts  :  8 3954 
o 850 | cpuTime 145.447 s
c last restart ## conflicts  :  90 4982 
o 820 | cpuTime 231.906 s
c last restart ## conflicts  :  217 7342 
o 808 | cpuTime 264.387 s
c last restart ## conflicts  :  163 3252 
o 787 | cpuTime 322.66 s
c last restart ## conflicts  :  2 3755 
o 785 | cpuTime 520.238 s
c last restart ## conflicts  :  1463 2815 
o 778 | cpuTime 994.282 s
c last restart ## conflicts  :  1607 3287 
o 767 | cpuTime 1024.41 s
c last restart ## conflicts  :  90 7498 
o 757 | cpuTime 2477.67 s
c last restart ## conflicts  :  281 3568 
o 714 | cpuTime 2888.87 s
s UNKNOWN
c Search is stopped by a limit (maybe time-limit)
cr positiVarArr: [ | 3@1(1->3) | 67@1(3->9) | 244@1(9->12) | 320@1(12->1) | 862@2(1->21) | 956@2(4->28) | 1236@2(14->18) | 1338@2(18->4) | 1435@2(21->14) | 1625@2(28->1) | 1704@3(1->22) | 2118@3(16->1) | 2307@3(22->16) | 2529@4(1->6) | 2665@4(5->26) | 2678@4(6->10) | 2789@4(10->5) | 3277@4(26->29) | 3336@4(29->1) | 3384@5(1->20) | 3793@5(15->23) | 3930@5(20->15) | 4029@5(23->27) | 4032@5(24->1) | 4142@5(27->24) | 4222@6(1->17) | 4670@6(17->1) | 5071@7(1->25) | 5076@7(2->1) | 5338@7(11->2) | 5753@7(25->11) | 5895@8(1->8) | 6080@8(7->19) | 6097@8(8->7) | 6236@8(13->1) | 6422@8(19->13) | ]
cr the 1-th chain: [ 1->3->9->12->1 ] (#non-depot=3) {#cumul.=4}
cr the 2-th chain: [ 1->21->14->18->4->28->1 ] (#non-depot=5) {#cumul.=9}
cr the 3-th chain: [ 1->22->16->1 ] (#non-depot=2) {#cumul.=11}
cr the 4-th chain: [ 1->6->10->5->26->29->1 ] (#non-depot=5) {#cumul.=16}
cr the 5-th chain: [ 1->20->15->23->27->24->1 ] (#non-depot=5) {#cumul.=21}
cr the 6-th chain: [ 1->17->1 ] (#non-depot=1) {#cumul.=22}
cr the 7-th chain: [ 1->25->11->2->1 ] (#non-depot=3) {#cumul.=25}
cr the 8-th chain: [ 1->8->7->19->13->1 ] (#non-depot=4) {#cumul.=29}
c Latest Answer = 0 by 17 loops
c restarts              : 22365
c conflicts             : 9520044        (2653 /sec)
c decisions             : 57167957       (0.00 % random) (15932 /sec)
c propagations          : 23746668744    (6618095 /sec)
c conflict literals     : 3846429699     (48.79 % deleted)
c Memory used           : 1610.00 MB
c CPU time              : 3588.14 s
